     30      1     10    316     11
     44
     12      0     14     18     24     28     16      3      9      6     10      1      8     21     15     14     28      5      1      0      6     26     18     22     19      8     13     15     14      3     16     11     12     27     14      0     12      4     17     12      8     14      1      9     25     24     29     20     28     14     17     22      6     14     10      6     29     22     21     23     12      9      6      1     25      5     20     24     12     16     10      5     25     24      7     15      6     24     13      8      9      2     29     26     14     17     11     21     29      4      0     23     28     22     27     28      3      0     12     23      9     18     19      3     12      8      4     29      3      1      2      8     14     19      7     11     15     13      6     14      1     16     22      2     21     20     19     13     21     17      2     28     24     25     26     19     28     20     16     24     26     22     27     21      5     14      7     23     29     24     29     11      9      0      6     25     18      4      1      9     17      6      1     20     11     29     12     28     14     16     18     10     13      0     13      8      5      2     17      7
     99     61    -37    118    129    138    120    118     62      1      7     79     50    -34    173     -8    122    118    -15    119    -17     34      9      7     69    -22     38     92     70      3     10     49     -2     53      1     40    -18     51    -27     47
      5     14	    289     79      6      8      1      0    177      0      0     -8      0      0      0     22      0      0      0      0      0    135      0      0      0      0      0     56      0      0      0      0      0      0      0      0      7
      5     11	    479    153      6      8      4    177      0    -43      0      0      0      0      0     -4      0      0      0     36    118      0      0      0    135      0      0      0    251      0     51      0    134      0      0    239      0
      2     12	    217    128      3      9      9      0    -43      0     -2      0      0    -24      0      6      0      0      0      0    104      0      0    165      0      0      0      0     50     27      0      0      0      0      0      0      0
      6     11	    148     59      8      8      1      0      0     -2      0     62      2      0      0      0      0    111      0      0      0     85     45      0      0      0      0      0      0     22      0      0      0     24      0      0      0
      2     12	    240    140      5      6      7     -8      0      0     62      0      0      0     86     64      0      0      0      0      0      0      0      0      0      0      0    -41      0     67      0      0      0      0      8      0    119
      1     13	    125     86      2      6      7      0      0      0      2      0      0      0      0    -17      0      0      0      0      0      0      0     34      0      0      0    -17      0      0      0      0      0      0      0      0     33
      4     15	    284    176      4      7      5      0      0    -24      0      0      0      0     11      0     22      0      0      0      0      0      0      0    122      0      0      0    -13      0      0      0      0      0      0      0      0
      1     15	    162    102      8      9      1      0      0      0      0     86      0     11      0      0      0     89      6    105      0      0      0      0     81      0      0      0    -17      0      0      0     97     48      0      8      0
      6     12	    187    105     10     10      1     22     -4      6      0     64    -17      0      0      0      0     52      0      0      0      0      0      0      0      0      0     61      0      0    141      0      0      0      0      0      0
      3     11	    417    113     10     10     10      0      0      0      0      0      0     22      0      0      0     41      0      0      0      0      0      0      0      0    140      0      0      0      0      0      0      0      0      0      0
      3     14	    215    100      6      9      7      0      0      0    111      0      0      0     89     52     41      0      0     89      0      0      0      0      0      0      0      0      0      0      0      0      0      0      0      0      0
      2     13	    203     98      6      8      4      0      0      0      0      0      0      0      6      0      0      0      0      0     77      0      0      0      0      0    126      0      0      0      0      0      0      0      0      0      0
      3     11	    378    221      4     10      1      0     36      0      0      0      0      0    105      0      0     89      0      0      0      0      0      0      0      0      0      0      0    144      0      0      0      0      0      0      0
      5     11	    245    127      6      8      3      0    118    104      0      0      0      0      0      0      0      0     77      0      0      0      0      0      0      0      0      0      0      0      0    168      0      0      0    176    -43
      5     11	    352    100      8     10      7    135      0      0     85      0      0      0      0      0      0      0      0      0      0      0      0      0      0      0     47    142      0      0    199      0    -43      0    247      0      0
      6     14	    197     50      6      6      6      0      0      0     45      0      0      0      0      0      0      0      0      0      0      0      0      0      0      0      0    -21      0      0     73      0      0      0      0     43      0
      6     14	    314    124      7      9     10      0      0    165      0      0     34      0      0      0      0      0      0      0      0      0      0      0      0     44      0      0    -51      0      0      0      0    195      0      0    -45
      1     10	    500    308      7     10      1      0    135      0      0      0      0    122     81      0      0      0      0      0      0      0      0      0      0      0    102      0      0    187      0      0    -30      0      0     40      0
      3     14	    131     77      9     10      4      0      0      0      0      0      0      0      0      0      0      0      0      0      0      0      0     44      0      0      7      0      0      0      0      0      0      0      0      0      0
      5     14	    219    111      5     10      9      0      0      0      0      0      0      0      0      0    140      0    126      0      0     47      0      0    102      7      0     -4      0      0      0      0      0      0      0      0      0
      5     10	    235    128      8      9      3     56      0      0      0    -41    -17      0      0     61      0      0      0      0      0    142    -21      0      0      0     -4      0      0     98      0      0      0    175      0      0    137
      4     12	    428    272      4      4      1      0    251     50      0      0      0    -13    -17      0      0      0      0      0      0      0      0    -51      0      0      0      0      0    142      0      0      0      0      0      0      0
      6     10	    326     76      9      9      8      0      0     27     22     67      0      0      0      0      0      0      0    144      0      0      0      0    187      0      0     98    142      0      0      0    -38      0      0      0      0
      2     13	    493    296      3      3      7      0     51      0      0      0      0      0      0    141      0      0      0      0      0    199     73      0      0      0      0      0      0      0      0      0      0      0      0    189      0
      3     15	    255     81     10     10      9      0      0      0      0      0      0      0      0      0      0      0      0      0    168      0      0      0      0      0      0      0      0      0      0      0      0      0      0      0     87
      2     10	    330     91      3      8      5      0    134      0      0      0      0      0     97      0      0      0      0      0      0    -43      0      0    -30      0      0      0      0    -38      0      0      0      0      0    126    -36
      1     12	    458    247      5      8      4      0      0      0     24      0      0      0     48      0      0      0      0      0      0      0      0    195      0      0      0    175      0      0      0      0      0      0      0      0      0
      4     14	    394    257      9     10      1      0      0      0      0      8      0      0      0      0      0      0      0      0      0    247      0      0      0      0      0      0      0      0      0      0      0      0      0      0      0
      5     11	    407    278      5      6     10      0    239      0      0      0      0      0      8      0      0      0      0      0    176      0     43      0     40      0      0      0      0      0    189      0    126      0      0      0      0
      4     13	    248     70      6      9      9      7      0      0      0    119     33      0      0      0      0      0      0      0    -43      0      0    -45      0      0      0    137      0      0      0     87    -36      0      0      0      0